PROBLEM NAME: eil51_n17
KNAPSACK DATA TYPE: uncorrelated, similar weights
DIMENSION: 17
NUMBER OF ITEMS: 16
CAPACITY OF KNAPSACK: 145525
MIN SPEED: 0.1
MAX SPEED: 1
RENTING RATIO: 1.53
EDGE_WEIGHT_TYPE: CEIL_2D
NODE_COORD_SECTION	(INDEX, X, Y):
1	52	64
2	40	30
3	17	63
4	17	33
5	13	13
6	42	57
7	8	52
8	43	67
9	58	27
10	38	46
11	46	10
12	32	22
13	59	15
14	5	64
15	39	10
16	32	39
17	48	28
ITEMS SECTION	(INDEX, PROFIT, WEIGHT, ASSIGNED NODE NUMBER):
1	955	100045	8
2	901	100058	3
3	845	100014	14
4	795	100036	7
5	738	100006	4
6	574	100043	5
7	485	100093	12
8	421	100091	15
9	326	100005	11
10	322	100048	13
11	252	100021	9
12	248	100015	17
13	122	100066	2
14	94	100097	16
15	43	100056	10
16	9	100090	6
